(set-info :smt-lib-version 2.6)
(set-logic QF_NIA)
(set-info :source |
Generated by: Cristina Borralleras, Daniel Larraz, Albert Oliveras, Enric Rodriguez-Carbonell, Albert Rubio
Generated on: 2017-04-27
Generator: VeryMax
Application: Termination proving
Target solver: barcelogic
|)
(set-info :license "https://creativecommons.org/licenses/by/4.0/")
(set-info :category "industrial")
(set-info :status unsat)
(declare-fun Nl5main_x11 () Int)
(declare-fun Nl5main_x21 () Int)
(declare-fun lam0n0 () Int)
(declare-fun lam0n1 () Int)
(declare-fun Nl5CT1 () Int)
(declare-fun lam1n0 () Int)
(declare-fun lam1n1 () Int)
(declare-fun lam2n0 () Int)
(declare-fun lam2n1 () Int)
(declare-fun lam2n2 () Int)
(declare-fun lam3n0 () Int)
(declare-fun lam3n1 () Int)
(declare-fun lam3n2 () Int)
(declare-fun lam4n0 () Int)
(declare-fun lam4n1 () Int)
(assert ( and ( <= ( - 1000 ) Nl5main_x11 ) ( <= Nl5main_x11 1000 ) ( <= ( - 1000 ) Nl5main_x21 ) ( <= Nl5main_x21 1000 ) ))
(assert ( or ( and ( >= lam0n0 0 ) ( >= lam0n1 0 ) ( > ( + ( * 2 lam0n0 ) ( * Nl5CT1 lam0n1 ) ( - 1 ) ) 0 ) ( = ( * Nl5main_x11 lam0n1 ) 0 ) ( = ( + ( * ( - 1 ) lam0n0 ) ( * Nl5main_x21 lam0n1 ) ) 0 ) ) ( and ( >= lam1n0 0 ) ( >= lam1n1 0 ) ( > ( + ( * 2 lam1n0 ) ( * Nl5CT1 lam1n1 ) ( - 1 ( + Nl5CT1 ( * Nl5main_x21 ( - 1 ) ) ) ) ) 0 ) ( = ( + ( * Nl5main_x11 lam1n1 ) ( - ( + 0 Nl5main_x11 ) ) ) 0 ) ( = ( + ( * ( - 1 ) lam1n0 ) ( * Nl5main_x21 lam1n1 ) ( - ( + 0 ( * Nl5main_x21 1 ) ) ) ) 0 ) ) ))
(assert ( or ( and ( >= lam2n0 0 ) ( >= lam2n1 0 ) ( >= lam2n2 0 ) ( > ( + ( * ( - 1 ) lam2n0 ) ( * ( - 9 ) lam2n1 ) ( * Nl5CT1 lam2n2 ) ( - 1 ) ) 0 ) ( = ( + ( * 1 lam2n1 ) ( * Nl5main_x11 lam2n2 ) ) 0 ) ( = ( + ( * 1 lam2n0 ) ( * Nl5main_x21 lam2n2 ) ) 0 ) ) ( and ( >= lam3n0 0 ) ( >= lam3n1 0 ) ( >= lam3n2 0 ) ( > ( + ( * ( - 1 ) lam3n0 ) ( * ( - 9 ) lam3n1 ) ( * Nl5CT1 lam3n2 ) ( - 1 ( + ( + Nl5CT1 ( * Nl5main_x11 1 ) ) ( * Nl5main_x21 1000 ) ) ) ) 0 ) ( = ( + ( * 1 lam3n1 ) ( * Nl5main_x11 lam3n2 ) ( - ( + 0 ( * Nl5main_x11 1 ) ) ) ) 0 ) ( = ( + ( * 1 lam3n0 ) ( * Nl5main_x21 lam3n2 ) ) 0 ) ) ))
(assert ( and ( >= lam4n0 0 ) ( > ( + ( * ( - 10 ) lam4n0 ) ( - 1 ( + Nl5CT1 ( * Nl5main_x21 1000 ) ) ) ) 0 ) ( = ( + ( * 1 lam4n1 ) ( - ( + 0 Nl5main_x11 ) ) ) 0 ) ( = ( + ( * 1 lam4n0 ) ( * ( - 1 ) lam4n1 ) ) 0 ) ))
(assert ( or ( and ( >= lam0n0 0 ) ( >= lam0n1 0 ) ( > ( + ( * 2 lam0n0 ) ( * Nl5CT1 lam0n1 ) ( - 1 ) ) 0 ) ( = ( * Nl5main_x11 lam0n1 ) 0 ) ( = ( + ( * ( - 1 ) lam0n0 ) ( * Nl5main_x21 lam0n1 ) ) 0 ) ) ( and ( >= lam2n0 0 ) ( >= lam2n1 0 ) ( >= lam2n2 0 ) ( > ( + ( * ( - 1 ) lam2n0 ) ( * ( - 9 ) lam2n1 ) ( * Nl5CT1 lam2n2 ) ( - 1 ) ) 0 ) ( = ( + ( * 1 lam2n1 ) ( * Nl5main_x11 lam2n2 ) ) 0 ) ( = ( + ( * 1 lam2n0 ) ( * Nl5main_x21 lam2n2 ) ) 0 ) ) ))
(check-sat)
(exit)
